\ Model Transicion a camiones eléctricos_copy
\ LP format - for model browsing. Use MPS format to capture full model detail.
Minimize
 
Subject To
 r12.2[1]: h_c[1,1] = 7789.44
Bounds
 h_c[1,1] free
Generals
 h_c[1,1]
End
